
List of user-set options:

                                    Name   Value                used
                           compl_inf_tol = 1                     yes
                         constr_viol_tol = 1                     yes
                            dual_inf_tol = 1000                  yes
                           linear_solver = ma97                  yes
                              ma86_small = 1e-30                  no
                                  ma86_u = 0.0001                 no
                              ma97_order = best                  yes
                              ma97_small = 1e-30                 yes
                            ma97_switch1 = at_start              yes
                            ma97_switch2 = od_hd_reuse           yes
                                  ma97_u = 1e-06                 yes
                               ma97_umax = 0.5                   yes
                                max_iter = 1000                  yes
                    max_refinement_steps = 20                    yes
                    min_refinement_steps = 5                     yes
                                 mu_init = 1e-06                 yes
           mu_superlinear_decrease_power = 1.25                  yes
                   nlp_scaling_min_value = 1e-08                 yes
                        option_file_name = Preset_Case_112_pf.opt  yes
                             output_file = ./tmp/Preset_Case_112_pf.output  yes
                      print_user_options = yes                   yes
        required_infeasibility_reduction = 1                      no
                                     tol = 1e-08                 yes
                   warm_start_bound_frac = 1e-20                 yes
                   warm_start_bound_push = 1e-20                 yes
                   warm_start_init_point = yes                   yes
              warm_start_mult_bound_push = 1e-20                 yes
                warm_start_mult_init_max = 1e+40                 yes
             warm_start_slack_bound_frac = 1e-20                 yes
             warm_start_slack_bound_push = 1e-20                 yes

******************************************************************************
This program contains Ipopt, a library for large-scale nonlinear optimization.
 Ipopt is released as open source code under the Eclipse Public License (EPL).
         For more information visit http://projects.coin-or.org/Ipopt
******************************************************************************

This is Ipopt version 3.12.10, running with linear solver ma97.

Number of nonzeros in equality constraint Jacobian...:   123443
Number of nonzeros in inequality constraint Jacobian.:      213
Number of nonzeros in Lagrangian Hessian.............:    49069

Total number of variables............................:    31591
                     variables with only lower bounds:    12912
                variables with lower and upper bounds:    15130
                     variables with only upper bounds:        0
Total number of equality constraints.................:    31483
Total number of inequality constraints...............:       25
        inequality constraints with only lower bounds:        4
   inequality constraints with lower and upper bounds:        0
        inequality constraints with only upper bounds:       21

iter    objective    inf_pr   inf_du lg(mu)  ||d||  lg(rg) alpha_du alpha_pr  ls
   0 -5.2138307e+00 4.02e-03 1.02e+00  -6.0 0.00e+00    -  0.00e+00 0.00e+00   0
   1 -5.2133339e+00 3.65e-02 1.02e+00  -6.0 3.38e+05    -  9.89e-05 8.52e-05h  5
   2 -5.2146572e+00 3.65e-02 5.13e+01  -6.0 3.53e+03    -  2.27e-01 1.94e-03h  1
   3 -5.3286550e+00 1.22e+00 3.33e+02  -6.0 3.48e+03    -  8.21e-02 1.67e-01f  1
   4 -5.4589375e+00 3.46e+00 7.66e+02  -6.0 2.78e+03    -  7.49e-01 2.49e-01h  1
   5 -5.4862010e+00 2.00e-01 6.03e+02  -6.0 1.03e+02  -4.0 7.84e-07 1.00e+00h  1
   6 -5.4858552e+00 9.46e-04 8.00e+01  -6.0 4.19e+00  -4.5 3.84e-01 1.00e+00h  1
   7 -5.6483940e+00 5.42e+01 1.73e+03  -6.0 5.53e+03    -  5.04e-03 3.64e-01f  1
   8 -5.6482517e+00 5.39e+01 1.11e+04  -6.0 2.74e+01  -3.1 7.85e-03 4.84e-03h  1
   9 -5.6479378e+00 5.34e+01 3.81e+04  -6.0 1.73e+01  -2.7 4.85e-03 9.40e-03h  1
iter    objective    inf_pr   inf_du lg(mu)  ||d||  lg(rg) alpha_du alpha_pr  ls
  10 -5.6479138e+00 5.33e+01 3.80e+04  -6.0 7.91e+00  -1.4 6.64e-03 2.37e-03h  1
  11 -5.6479320e+00 5.32e+01 3.80e+04  -6.0 7.89e+00  -0.1 1.84e-04 7.49e-04h  1
  12 -5.6476579e+00 5.31e+01 3.79e+04  -6.0 8.93e+00  -0.5 2.38e-05 2.61e-03h  1
  13 -5.6476288e+00 5.31e+01 3.79e+04  -6.0 7.86e+00  -1.0 1.52e-03 3.56e-04h  1
  14 -5.6471680e+00 5.28e+01 3.77e+04  -6.0 7.86e+00  -1.5 4.13e-03 5.68e-03h  1
  15 -5.6456625e+00 5.18e+01 3.70e+04  -6.0 7.81e+00  -2.0 7.83e-03 1.86e-02h  1
  16 -5.6436589e+00 5.04e+01 3.60e+04  -6.0 7.67e+00  -2.4 5.54e-02 2.61e-02h  1
  17 -5.6420161e+00 4.93e+01 3.52e+04  -6.0 1.04e+01  -2.9 1.43e-01 2.34e-02h  1
  18 -5.6416262e+00 4.89e+01 3.49e+04  -6.0 3.41e+01  -3.4 2.27e-01 6.81e-03h  1
  19 -5.6416647e+00 4.88e+01 3.49e+04  -6.0 1.43e+02  -3.9 1.76e-01 1.89e-03h  1
iter    objective    inf_pr   inf_du lg(mu)  ||d||  lg(rg) alpha_du alpha_pr  ls
  20 -5.6346691e+00 4.30e+01 3.07e+04  -6.0 7.21e+00  -3.5 1.52e-01 1.19e-01h  1
  21 -5.6275487e+00 3.40e+01 2.43e+04  -6.0 2.60e+01  -3.9 3.32e-01 2.10e-01h  1
  22 -5.6263730e+00 3.15e+01 2.25e+04  -6.0 4.57e+01  -4.4 5.25e-01 7.36e-02h  1
  23 -5.6295726e+00 2.25e+01 1.61e+04  -6.0 4.78e+01  -4.9 2.04e-01 2.85e-01h  1
  24 -5.6297870e+00 2.13e+01 1.52e+04  -6.0 3.40e+01  -5.4 1.74e-04 5.45e-02h  1
  25 -5.6286805e+00 1.68e+01 1.20e+04  -6.0 3.33e+01  -4.9 4.71e-01 2.13e-01h  1
  26 -5.6222118e+00 4.22e+00 3.00e+03  -6.0 2.78e+01  -5.4 3.61e-04 7.49e-01h  1
  27 -5.6255325e+00 3.99e+00 2.84e+03  -6.0 1.11e+03    -  7.41e-01 5.49e-02h  1
  28 -5.6709443e+00 1.03e+01 9.68e+02  -6.0 1.03e+03    -  7.61e-01 8.20e-01h  1
  29 -5.6604438e+00 3.09e+00 4.50e+03  -6.0 3.95e+02    -  1.11e-01 7.02e-01h  1
iter    objective    inf_pr   inf_du lg(mu)  ||d||  lg(rg) alpha_du alpha_pr  ls
  30 -5.6601885e+00 2.91e+00 4.20e+03  -6.0 8.51e+01  -5.9 1.71e-02 5.77e-02h  1
  31 -5.6562044e+00 5.68e-02 1.18e+03  -6.0 4.40e+01  -6.4 1.54e-01 1.00e+00h  1
  32 -5.6558842e+00 3.94e-03 3.19e+02  -6.0 2.55e+00  -4.1 5.52e-01 9.31e-01h  1
  33 -5.6559645e+00 1.34e-05 1.12e+01  -6.0 1.09e+00  -4.6 1.00e+00 1.00e+00f  1
  34 -5.6562221e+00 1.21e-04 3.01e-01  -6.0 3.29e+00  -5.1 1.00e+00 1.00e+00h  1
  35 -5.6563138e+00 1.23e-04 1.49e+01  -6.0 7.99e+00  -5.6 1.00e+00 1.33e-01h  1
  36 -5.6569679e+00 9.69e-03 6.61e-02  -6.0 1.81e+01  -6.0 1.00e+00 1.00e+00f  1
  37 -5.6589648e+00 8.70e-02 4.09e-01  -6.0 5.41e+01  -6.5 1.00e+00 1.00e+00h  1
  38 -5.6663174e+00 1.07e+00 4.68e+00  -6.0 1.90e+02  -7.0 1.00e+00 1.00e+00h  1
  39 -5.6696076e+00 1.18e+00 9.24e+00  -6.0 3.97e+03  -7.5 5.01e-02 1.70e-02h  1
iter    objective    inf_pr   inf_du lg(mu)  ||d||  lg(rg) alpha_du alpha_pr  ls
  40 -5.6697601e+00 1.17e+00 1.00e+04  -6.0 6.87e+03    -  1.37e-01 8.96e-03h  1
  41 -5.6704689e+00 9.80e-01 3.52e+03  -6.0 2.24e+02  -7.1 3.93e-03 2.11e-01h  1
  42 -5.6726179e+00 7.17e-01 3.01e+05  -6.0 1.56e+02  -5.7 1.26e-02 3.59e-01h  1
  43 -5.6778161e+00 4.78e-02 2.87e+02  -6.0 3.41e+01  -6.2 9.02e-01 1.00e+00f  1
  44 -5.6848666e+00 2.47e-01 1.15e+02  -6.0 1.43e+02  -6.7 1.00e+00 6.39e-01h  1
  45 -5.6935906e+00 6.24e-01 1.04e+01  -6.0 6.64e+02  -7.2 4.77e-01 1.83e-01h  1
  46 -5.7023473e+00 1.13e+02 1.01e+02  -6.0 1.69e+04    -  6.67e-03 1.40e-01h  1
  47 -5.7166715e+00 1.45e+00 8.22e+01  -6.0 2.27e+02  -6.7 2.37e-01 1.00e+00h  1
  48 -5.7173138e+00 1.42e+00 2.80e+02  -6.0 6.29e+02  -7.2 3.58e-01 1.75e-02h  1
  49 -5.7176583e+00 1.40e+00 3.60e+02  -6.0 2.61e+02  -7.7 8.48e-01 1.61e-02h  1
iter    objective    inf_pr   inf_du lg(mu)  ||d||  lg(rg) alpha_du alpha_pr  ls
  50 -5.7272659e+00 2.14e+00 1.39e+03  -6.0 5.58e+02  -8.2 2.02e-01 5.91e-01h  1
  51 -5.7366025e+00 9.32e-01 1.05e+02  -6.0 1.78e+02  -7.7 9.59e-01 9.31e-01h  1
  52 -5.7316031e+00 6.84e-01 9.30e+02  -6.0 1.75e+02  -8.2 3.04e-02 3.78e-01h  1
  53 -5.7319160e+00 6.84e-01 9.30e+02  -6.0 5.39e+03  -8.7 1.02e-02 5.13e-04h  1
  54 -5.7316626e+00 6.72e-01 9.04e+02  -6.0 3.47e+03  -7.4 6.69e-03 1.69e-02f  3
  55 -5.7337749e+00 6.45e-01 9.11e+02  -6.0 3.08e+02  -7.8 4.87e-01 5.22e-02h  1
  56 -5.7374473e+00 5.76e-01 8.10e+02  -6.0 2.18e+02  -7.4 9.02e-02 2.04e-01h  1
  57 -5.7377539e+00 3.16e-02 4.81e+03  -6.0 2.79e+01  -7.0 2.15e-02 1.00e+00h  1
  58 -5.7321679e+00 3.79e-02 2.66e+01  -6.0 4.58e+01  -7.5 9.41e-01 1.00e+00h  1
  59 -5.7318317e+00 6.70e-03 2.88e+00  -6.0 1.42e+01  -7.0 1.00e+00 1.00e+00h  1
iter    objective    inf_pr   inf_du lg(mu)  ||d||  lg(rg) alpha_du alpha_pr  ls
  60 -5.7317706e+00 4.91e-03 1.61e+00  -6.0 5.85e+01  -7.5 1.00e+00 1.00e+00H  1
  61 -5.7318099e+00 1.09e-02 2.70e-01  -6.0 2.45e+01  -7.1 1.00e+00 1.00e+00h  1
  62 -5.7322150e+00 1.01e-01 7.16e+00  -6.0 1.33e+02  -7.6 9.89e-01 1.00e+00H  1
  63 -5.7322469e+00 4.96e-02 4.67e+00  -6.0 5.22e+01  -7.1 1.00e+00 1.00e+00h  1
  64 -5.7324195e+00 6.73e-02 1.88e+01  -6.0 2.89e+02  -7.6 5.38e-01 1.25e-01h  4
  65 -5.7329353e+00 6.26e-02 4.77e+00  -6.0 7.69e+01  -7.2 1.00e+00 1.00e+00H  1
  66 -5.7330447e+00 9.03e-02 7.69e+00  -6.0 2.67e+02  -7.7 2.78e-01 6.25e-02h  5
  67 -5.7416436e+00 2.72e+01 4.31e+03  -6.0 1.79e+03  -8.1 1.19e-01 6.79e-01h  1
  68 -5.7367105e+00 2.22e+01 2.45e+03  -6.0 2.50e+02  -5.9 8.31e-02 1.84e-01h  1
  69 -5.7363236e+00 2.17e+01 2.37e+03  -6.0 3.09e+02  -6.4 2.55e-02 2.37e-02h  5
iter    objective    inf_pr   inf_du lg(mu)  ||d||  lg(rg) alpha_du alpha_pr  ls
  70 -5.7361885e+00 2.16e+01 2.37e+03  -6.0 1.09e+02  -5.1 1.85e-02 2.29e-03h  5
  71 -5.7361664e+00 2.16e+01 2.37e+03  -6.0 1.58e+01  -4.6 3.82e-02 5.43e-04h 10
  72 -5.7361515e+00 2.16e+01 2.37e+03  -6.0 4.44e+02  -5.1 6.79e-03 1.17e-04h  8
  73 -5.7274519e+00 1.71e+01 1.50e+03  -6.0 1.58e+01  -4.7 2.10e-01 2.10e-01s 21
  74 -5.7239552e+00 1.48e+01 1.35e+03  -6.0 2.25e+01  -5.2 1.33e-01 1.33e-01s 21
  75 -5.7230765e+00 1.41e+01 1.29e+03  -6.0 1.93e+01  -5.6 4.47e-02 4.47e-02s 21
  76 -5.7229421e+00 1.36e+01 1.26e+03  -6.0 4.41e+01  -6.1 3.74e-02 3.74e-02s 21
  77 -5.7233715e+00 1.31e+01 1.23e+03  -6.0 9.48e+01  -6.6 3.60e-02 3.60e-02s 21
  78 -5.7240099e+00 1.29e+01 1.22e+03  -6.0 1.20e+02  -7.1 1.61e-02 1.61e-02s 21
  79 -5.7172517e+00 5.66e+00 4.19e+02  -6.0 1.97e+02  -6.6 5.78e-01 5.78e-01s 21
iter    objective    inf_pr   inf_du lg(mu)  ||d||  lg(rg) alpha_du alpha_pr  ls
  80 -5.7223495e+00 3.91e+00 2.75e+02  -6.0 3.40e+02  -7.1 3.61e-01 3.61e-01s 21
  81 -5.7409081e+00 5.43e+00 1.32e+03  -6.0 5.32e+02  -7.6 1.00e+00 0.00e+00S 21
  82 -5.7382187e+00 4.00e-01 8.21e+01  -6.0 3.49e+02  -8.1 1.00e+00 1.00e+00h  1
  83 -5.7382890e+00 5.08e-01 7.65e+01  -6.0 2.52e+03    -  6.83e-01 6.57e-02h  1
  84 -5.7385311e+00 8.46e-01 3.91e+01  -6.0 8.07e+02    -  1.00e+00 3.96e-01h  1
  85 -5.7379005e+00 3.86e-01 3.40e+03  -6.0 6.62e+02    -  1.82e-03 4.98e-01H  1
  86 -5.7371156e+00 1.51e-01 3.62e+00  -6.0 2.22e+02    -  3.46e-01 1.00e+00h  1
  87 -5.7369650e+00 8.86e-02 3.55e-02  -6.0 7.09e+01    -  1.00e+00 1.00e+00h  1
  88 -5.7369629e+00 1.95e-03 7.67e-04  -6.0 1.04e+01    -  1.00e+00 1.00e+00h  1
  89 -5.7369629e+00 2.11e-09 1.65e-08  -6.0 9.27e-03    -  1.00e+00 1.00e+00h  1
iter    objective    inf_pr   inf_du lg(mu)  ||d||  lg(rg) alpha_du alpha_pr  ls
  90 -5.7372097e+00 6.23e+00 7.23e+01  -7.5 8.21e+02    -  5.96e-01 7.71e-01f  1
  91 -5.7371782e+00 1.72e+00 1.45e+01  -7.5 2.50e+02    -  8.69e-01 8.43e-01h  1
  92 -5.7371640e+00 2.59e-02 2.05e-01  -7.5 3.72e+01    -  1.00e+00 1.00e+00h  1
  93 -5.7371637e+00 1.13e-05 1.07e-05  -7.5 8.59e-01    -  1.00e+00 1.00e+00h  1
  94 -5.7371637e+00 2.92e-10 5.57e-12  -7.5 1.54e-04    -  1.00e+00 1.00e+00h  1
  95 -5.7371654e+00 9.83e-03 8.57e-01  -9.0 2.95e+01    -  9.28e-01 8.35e-01h  1
  96 -5.7371656e+00 3.94e-04 2.28e-01  -9.0 4.92e+00    -  9.48e-01 1.00e+00h  1
  97 -5.7371656e+00 5.24e-10 4.99e-09  -9.0 6.14e-03    -  1.00e+00 1.00e+00h  1

Number of Iterations....: 97

                                   (scaled)                 (unscaled)
Objective...............:  -4.4821605896740531e+00   -5.7371655547827878e+00
Dual infeasibility......:   4.9934070881459554e-09    6.3915610728268234e-09
Constraint violation....:   3.3007697273649566e-10    5.2386894822120667e-10
Complementarity.........:   1.3371467628246606e-09    1.7115478564155656e-09
Overall NLP error.......:   4.9934070881459554e-09    6.3915610728268234e-09


Number of objective function evaluations             = 170
Number of objective gradient evaluations             = 98
Number of equality constraint evaluations            = 170
Number of inequality constraint evaluations          = 170
Number of equality constraint Jacobian evaluations   = 98
Number of inequality constraint Jacobian evaluations = 98
Number of Lagrangian Hessian evaluations             = 97
Total CPU secs in IPOPT (w/o function evaluations)   =    313.212
Total CPU secs in NLP function evaluations           =      4.071

EXIT: Optimal Solution Found.
